
Gurobi 5.6.3 (mac64) logging started Fri Sep 26 15:20:34 2014


Gurobi 5.6.3 (mac64) logging started Fri Sep 26 22:01:38 2014


Gurobi 5.6.3 (mac64) logging started Sat Oct 11 14:09:31 2014


Gurobi 5.6.3 (mac64) logging started Sat Oct 11 14:10:09 2014

